%chk=C:\Users\Danny\Documents\Gaussian\thiourea\cat_H-amide_E-Ph-pddg-pcm.chk
# hf/3-21g geom=connectivity

Title Card Required

0 1
 C                  0.06653547    0.25922222   -0.00134317
 S                  0.84919633    1.61607553   -0.00118793
 N                 -1.40346193    0.26154910   -0.00283716
 H                 -1.73670815   -0.20812829   -0.82036398
 N                  0.79699343   -1.01644599    0.00000000
 H                  0.55278332   -1.53953500    0.81654106
 C                 -1.89577911   -0.43239980    1.19589497
 H                 -1.84475529   -1.49003882    1.04195900
 C                  0.44024247   -1.78663292   -1.20018367
 C                 -0.31752617   -2.95203010   -1.08140864
 C                  0.85918023   -1.35232894   -2.45772864
 C                 -0.65566213   -3.68326059   -2.21991108
 H                 -0.64700218   -3.29457681   -0.08976904
 C                  0.52018980   -2.08313433   -3.59677159
 H                  1.45627545   -0.43373999   -2.55154052
 C                 -0.23699240   -3.24851795   -3.47805695
 H                 -1.25240886   -4.60218865   -2.12631046
 H                  0.85029517   -1.74024017   -4.58819898
 H                 -0.50377168   -3.82520061   -4.37558815
 C                 -1.02479730   -0.04719007    2.40610328
 C                 -0.76039373    1.46981140    2.38617134
 H                 -1.19620589    1.91924554    3.25391365
 H                  0.29466847    1.64796579    2.38398909
 H                 -1.19593490    1.89624294    1.50676243
 C                 -1.75824527   -0.42337980    3.70692431
 H                 -2.18433613   -1.39973796    3.60656830
 H                 -1.06454331   -0.41897711    4.52157651
 H                 -2.53545965    0.28719725    3.89644494
 C                  0.31522861   -0.80279230    2.33542196
 H                  0.16703799   -1.74764639    1.85564046
 H                  1.02116292   -0.22542427    1.77577662
 H                  0.68854149   -0.96030236    3.32573912
 C                 -3.35595768   -0.02239385    1.46305349
 O                 -4.28109814   -0.86888487    1.35751368
 C                 -4.57042138    2.08173435    0.80928061
 C                 -4.42966819    1.46252799    3.18791446
 C                 -5.81549266    2.60975670    1.50717107
 H                 -4.02458594    2.91284150    0.29666977
 C                 -5.75980846    2.16709080    2.96228667
 H                 -3.82646674    2.00302835    3.96005468
 H                 -4.59747261    0.42414649    3.56953150
 H                 -5.85399833    3.72638909    1.44168714
 H                 -6.73960287    2.21927550    1.01219645
 H                 -5.85788294    3.04865372    3.64418392
 H                 -6.60993208    1.47668048    3.19253992
 N                 -3.68510105    1.42850752    1.86073407
 C                 -4.95777795    1.05831946   -0.27431380
 C                 -4.44883785    1.18493785   -1.56714758
 C                 -5.81731099    0.00474798    0.03671390
 C                 -4.79994061    0.25853331   -2.54884164
 H                 -3.77183163    2.01610413   -1.81223325
 C                 -6.16783748   -0.92258733   -0.94491245
 H                 -6.21838581   -0.09529892    1.05566367
 C                 -5.65943450   -0.79579219   -2.23757885
 H                 -4.39932612    0.35862850   -3.56804991
 H                 -6.84523537   -1.75341436   -0.69928514
 H                 -5.93607839   -1.52613999   -3.01176009

 1 2 2.0 3 1.0 5 1.0
 2
 3 4 1.0 7 1.0
 4
 5 6 1.0 9 1.0
 6
 7 8 1.0 20 1.0 33 1.0
 8
 9 10 1.5 11 1.5
 10 12 1.5 13 1.0
 11 14 1.5 15 1.0
 12 16 1.5 17 1.0
 13
 14 16 1.5 18 1.0
 15
 16 19 1.0
 17
 18
 19
 20 21 1.0 25 1.0 29 1.0
 21 22 1.0 23 1.0 24 1.0
 22
 23
 24
 25 26 1.0 27 1.0 28 1.0
 26
 27
 28
 29 30 1.0 31 1.0 32 1.0
 30
 31
 32
 33 34 2.0 46 1.0
 34
 35 37 1.0 38 1.0 46 1.0 47 1.0
 36 39 1.0 40 1.0 41 1.0 46 1.0
 37 39 1.0 42 1.0 43 1.0
 38
 39 44 1.0 45 1.0
 40
 41
 42
 43
 44
 45
 46
 47 48 1.5 49 1.5
 48 50 1.5 51 1.0
 49 52 1.5 53 1.0
 50 54 1.5 55 1.0
 51
 52 54 1.5 56 1.0
 53
 54 57 1.0
 55
 56
 57

